% seed = 4527320

mint = 78;
% maxt = 235;

nActs = 42;
dur = [0,1,7,6,1,8,2,1,7,5,9,9,6,7,10,10,6,3,9,6,10,8,6,2,5,1,2,5,3,9,8,10,6,8,1,8,5,7,8,6,4,0];

nSkills = 4;
sreq = [| 0,0,0,0,
	| 0,4,3,0,
	| 0,6,3,0,
	| 0,4,0,5,
	| 0,3,0,5,
	| 0,4,0,6,
	| 0,2,0,3,
	| 0,0,3,6,
	| 2,0,0,5,
	| 0,3,4,0,
	| 5,0,0,3,
	| 5,0,3,0,
	| 0,5,0,1,
	| 2,4,0,0,
	| 4,0,6,0,
	| 7,0,4,0,
	| 0,3,0,3,
	| 7,3,0,0,
	| 0,3,0,6,
	| 0,0,6,7,
	| 6,0,5,0,
	| 0,3,4,0,
	| 0,2,7,0,
	| 0,7,0,3,
	| 0,4,0,6,
	| 2,6,0,0,
	| 0,0,1,3,
	| 0,3,0,5,
	| 0,0,4,4,
	| 4,0,0,5,
	| 0,3,4,0,
	| 0,0,3,7,
	| 3,2,0,0,
	| 0,3,0,7,
	| 3,0,0,5,
	| 2,2,0,0,
	| 0,5,3,0,
	| 5,0,0,3,
	| 3,0,2,0,
	| 4,0,2,0,
	| 2,0,5,0,
	| 0,0,0,0, |];

nResources = 25;
mastery = [| true,false,true,true,
	| false,true,false,true,
	| true,false,true,false,
	| false,true,true,false,
	| true,false,false,false,
	| true,true,false,false,
	| true,false,true,false,
	| true,false,true,false,
	| true,true,true,false,
	| true,true,false,true,
	| true,false,true,true,
	| true,true,false,false,
	| false,false,false,true,
	| false,false,false,true,
	| true,false,true,true,
	| false,false,false,true,
	| true,true,false,true,
	| true,false,false,false,
	| true,false,true,true,
	| true,false,false,true,
	| false,true,false,true,
	| true,true,false,false,
	| true,true,true,false,
	| false,true,false,false,
	| true,false,false,false, |];

nPrecs = 61;
pred = [1,1,1,2,2,2,3,4,4,4,5,6,6,6,7,8,8,9,9,9,10,10,10,11,11,11,12,13,13,14,15,16,16,17,17,18,19,20,21,22,22,23,24,25,26,27,28,29,30,31,32,33,33,34,35,36,37,38,39,40,41];
succ = [2,3,4,36,6,22,8,10,5,7,9,34,11,15,41,14,23,33,12,16,17,20,24,21,13,26,25,18,39,25,35,19,38,29,21,28,29,30,37,23,40,27,40,28,37,31,31,31,32,32,33,35,37,41,41,38,38,40,42,42,42];

nUnrels = 463;
unpred = [2,2,2,2,2,2,2,2,2,2,2,2,2,2,2,2,2,3,3,3,3,3,3,3,3,3,3,3,3,3,3,3,3,3,3,3,3,3,3,3,3,4,4,4,4,4,4,4,4,4,4,4,4,4,4,5,5,5,5,5,5,5,5,5,5,5,5,5,5,5,5,5,5,5,5,5,6,6,6,6,6,6,6,6,6,6,6,6,6,6,6,6,6,6,7,7,7,7,7,7,7,7,7,7,7,7,7,7,7,7,7,7,7,7,7,7,7,7,7,7,7,7,7,7,7,7,7,8,8,8,8,8,8,8,8,8,8,8,8,8,8,8,8,8,8,8,8,9,9,9,9,9,9,9,9,9,9,9,9,9,9,9,9,9,9,10,10,10,10,10,10,10,10,10,10,10,10,10,10,10,10,10,11,11,11,11,11,11,11,11,11,11,11,11,11,11,11,11,12,12,12,12,12,12,12,12,12,12,12,12,12,12,12,12,12,12,12,13,13,13,13,13,13,13,13,13,13,13,13,13,13,13,13,13,14,14,14,14,14,14,14,14,14,14,14,14,14,14,14,14,14,15,15,15,15,15,15,15,15,15,15,15,15,15,15,15,15,15,15,15,15,15,15,15,15,16,16,16,16,16,16,16,16,16,16,16,16,16,16,16,17,17,17,17,17,17,17,17,17,17,17,17,17,17,18,18,18,18,18,18,18,18,18,18,18,18,18,18,19,19,19,19,19,19,19,19,19,19,19,19,19,20,20,20,20,20,20,20,20,20,20,20,20,20,21,21,21,21,21,21,21,21,21,21,21,21,21,21,21,21,21,22,22,22,22,22,22,22,22,22,23,23,23,23,23,23,23,23,23,24,24,24,24,24,24,24,24,24,24,24,24,24,24,24,24,25,25,25,25,25,25,25,26,26,26,26,26,26,26,26,26,26,26,26,27,27,27,27,27,27,28,28,28,28,28,29,29,29,29,30,30,30,30,31,31,31,32,32,32,33,33,33,34,34,34,34,34,34,35,35,35,35,35,36,36,36,37,37,38,38,39,39,40];
unsucc = [3,4,5,7,8,9,10,12,14,16,17,19,20,24,25,29,30,4,5,6,7,9,10,11,12,13,15,16,17,18,19,20,21,22,24,26,29,30,34,36,39,6,8,11,13,14,15,18,22,23,26,27,34,36,39,6,7,8,10,11,13,14,15,17,18,20,21,22,23,24,26,27,30,34,36,39,7,8,9,10,12,14,16,17,19,20,22,23,24,25,27,29,30,36,8,9,10,11,12,13,14,15,16,17,18,19,20,21,22,23,24,25,26,27,28,29,30,31,32,33,34,35,36,37,38,39,40,9,10,11,12,13,15,16,17,18,19,20,21,22,24,26,29,30,34,36,39,10,11,13,14,15,17,18,20,21,22,23,24,26,27,30,34,36,39,11,12,13,14,15,16,18,19,22,23,25,26,27,28,34,36,39,12,14,15,16,17,19,20,22,23,24,25,27,29,30,34,36,13,14,15,16,17,18,19,20,21,22,23,24,26,27,29,30,34,36,39,14,15,16,17,19,20,21,22,23,24,25,26,27,29,30,34,36,15,16,17,18,19,20,21,22,23,24,26,27,29,30,34,36,39,16,17,18,19,20,21,22,23,24,25,26,27,28,29,30,31,32,33,34,36,37,38,39,40,17,18,20,21,22,23,24,25,26,27,28,30,34,36,39,18,19,20,22,23,24,25,26,27,28,30,34,36,39,19,20,21,22,23,24,25,26,27,29,30,34,36,39,20,21,22,23,24,25,26,27,28,30,34,36,39,21,22,23,24,25,26,27,28,29,31,34,36,39,22,23,24,25,26,27,28,29,30,31,32,33,34,35,36,39,41,24,25,26,28,29,30,34,36,39,24,25,26,28,29,30,34,36,39,25,26,27,28,29,30,31,32,33,34,35,36,37,38,39,41,26,27,29,30,34,36,39,27,28,29,30,31,32,33,34,35,36,39,41,28,29,30,34,36,39,29,30,34,36,39,30,34,36,39,31,34,36,39,34,36,39,34,36,39,34,36,39,35,36,37,38,39,40,36,37,38,39,40,37,39,41,39,41,39,41,40,41,41];

USEFUL_RES = [{},
	{1,2,3,4,6,7,8,9,10,11,12,15,17,19,21,22,23,24},
	{1,2,3,4,6,7,8,9,10,11,12,15,17,19,21,22,23,24},
	{1,2,4,6,9,10,11,12,13,14,15,16,17,19,20,21,22,23,24},
	{1,2,4,6,9,10,11,12,13,14,15,16,17,19,20,21,22,23,24},
	{1,2,4,6,9,10,11,12,13,14,15,16,17,19,20,21,22,23,24},
	{1,2,4,6,9,10,11,12,13,14,15,16,17,19,20,21,22,23,24},
	{1,2,3,4,7,8,9,10,11,13,14,15,16,17,19,20,21,23},
	{1,2,3,5,6,7,8,9,10,11,12,13,14,15,16,17,18,19,20,21,22,23,25},
	{1,2,3,4,6,7,8,9,10,11,12,15,17,19,21,22,23,24},
	{1,2,3,5,6,7,8,9,10,11,12,13,14,15,16,17,18,19,20,21,22,23,25},
	{1,3,4,5,6,7,8,9,10,11,12,15,17,18,19,20,22,23,25},
	{1,2,4,6,9,10,11,12,13,14,15,16,17,19,20,21,22,23,24},
	{1,2,3,4,5,6,7,8,9,10,11,12,15,17,18,19,20,21,22,23,24,25},
	{1,3,4,5,6,7,8,9,10,11,12,15,17,18,19,20,22,23,25},
	{1,3,4,5,6,7,8,9,10,11,12,15,17,18,19,20,22,23,25},
	{1,2,4,6,9,10,11,12,13,14,15,16,17,19,20,21,22,23,24},
	{1,2,3,4,5,6,7,8,9,10,11,12,15,17,18,19,20,21,22,23,24,25},
	{1,2,4,6,9,10,11,12,13,14,15,16,17,19,20,21,22,23,24},
	{1,2,3,4,7,8,9,10,11,13,14,15,16,17,19,20,21,23},
	{1,3,4,5,6,7,8,9,10,11,12,15,17,18,19,20,22,23,25},
	{1,2,3,4,6,7,8,9,10,11,12,15,17,19,21,22,23,24},
	{1,2,3,4,6,7,8,9,10,11,12,15,17,19,21,22,23,24},
	{1,2,4,6,9,10,11,12,13,14,15,16,17,19,20,21,22,23,24},
	{1,2,4,6,9,10,11,12,13,14,15,16,17,19,20,21,22,23,24},
	{1,2,3,4,5,6,7,8,9,10,11,12,15,17,18,19,20,21,22,23,24,25},
	{1,2,3,4,7,8,9,10,11,13,14,15,16,17,19,20,21,23},
	{1,2,4,6,9,10,11,12,13,14,15,16,17,19,20,21,22,23,24},
	{1,2,3,4,7,8,9,10,11,13,14,15,16,17,19,20,21,23},
	{1,2,3,5,6,7,8,9,10,11,12,13,14,15,16,17,18,19,20,21,22,23,25},
	{1,2,3,4,6,7,8,9,10,11,12,15,17,19,21,22,23,24},
	{1,2,3,4,7,8,9,10,11,13,14,15,16,17,19,20,21,23},
	{1,2,3,4,5,6,7,8,9,10,11,12,15,17,18,19,20,21,22,23,24,25},
	{1,2,4,6,9,10,11,12,13,14,15,16,17,19,20,21,22,23,24},
	{1,2,3,5,6,7,8,9,10,11,12,13,14,15,16,17,18,19,20,21,22,23,25},
	{1,2,3,4,5,6,7,8,9,10,11,12,15,17,18,19,20,21,22,23,24,25},
	{1,2,3,4,6,7,8,9,10,11,12,15,17,19,21,22,23,24},
	{1,2,3,5,6,7,8,9,10,11,12,13,14,15,16,17,18,19,20,21,22,23,25},
	{1,3,4,5,6,7,8,9,10,11,12,15,17,18,19,20,22,23,25},
	{1,3,4,5,6,7,8,9,10,11,12,15,17,18,19,20,22,23,25},
	{1,3,4,5,6,7,8,9,10,11,12,15,17,18,19,20,22,23,25},
	{}];

POTENTIAL_ACT = [{2,3,4,5,6,7,8,9,10,11,12,13,14,15,16,17,18,19,20,21,22,23,24,25,26,27,28,29,30,31,32,33,34,35,36,37,38,39,40,41},
	{2,3,4,5,6,7,8,9,10,11,13,14,17,18,19,20,22,23,24,25,26,27,28,29,30,31,32,33,34,35,36,37,38},
	{2,3,8,9,10,11,12,14,15,16,18,20,21,22,23,26,27,29,30,31,32,33,35,36,37,38,39,40,41},
	{2,3,4,5,6,7,8,10,12,13,14,15,16,17,18,19,20,21,22,23,24,25,26,27,28,29,31,32,33,34,36,37,39,40,41},
	{9,11,12,14,15,16,18,21,26,30,33,35,36,38,39,40,41},
	{2,3,4,5,6,7,9,10,11,12,13,14,15,16,17,18,19,21,22,23,24,25,26,28,30,31,33,34,35,36,37,38,39,40,41},
	{2,3,8,9,10,11,12,14,15,16,18,20,21,22,23,26,27,29,30,31,32,33,35,36,37,38,39,40,41},
	{2,3,8,9,10,11,12,14,15,16,18,20,21,22,23,26,27,29,30,31,32,33,35,36,37,38,39,40,41},
	{2,3,4,5,6,7,8,9,10,11,12,13,14,15,16,17,18,19,20,21,22,23,24,25,26,27,28,29,30,31,32,33,34,35,36,37,38,39,40,41},
	{2,3,4,5,6,7,8,9,10,11,12,13,14,15,16,17,18,19,20,21,22,23,24,25,26,27,28,29,30,31,32,33,34,35,36,37,38,39,40,41},
	{2,3,4,5,6,7,8,9,10,11,12,13,14,15,16,17,18,19,20,21,22,23,24,25,26,27,28,29,30,31,32,33,34,35,36,37,38,39,40,41},
	{2,3,4,5,6,7,9,10,11,12,13,14,15,16,17,18,19,21,22,23,24,25,26,28,30,31,33,34,35,36,37,38,39,40,41},
	{4,5,6,7,8,9,11,13,17,19,20,24,25,27,28,29,30,32,34,35,38},
	{4,5,6,7,8,9,11,13,17,19,20,24,25,27,28,29,30,32,34,35,38},
	{2,3,4,5,6,7,8,9,10,11,12,13,14,15,16,17,18,19,20,21,22,23,24,25,26,27,28,29,30,31,32,33,34,35,36,37,38,39,40,41},
	{4,5,6,7,8,9,11,13,17,19,20,24,25,27,28,29,30,32,34,35,38},
	{2,3,4,5,6,7,8,9,10,11,12,13,14,15,16,17,18,19,20,21,22,23,24,25,26,27,28,29,30,31,32,33,34,35,36,37,38,39,40,41},
	{9,11,12,14,15,16,18,21,26,30,33,35,36,38,39,40,41},
	{2,3,4,5,6,7,8,9,10,11,12,13,14,15,16,17,18,19,20,21,22,23,24,25,26,27,28,29,30,31,32,33,34,35,36,37,38,39,40,41},
	{4,5,6,7,8,9,11,12,13,14,15,16,17,18,19,20,21,24,25,26,27,28,29,30,32,33,34,35,36,38,39,40,41},
	{2,3,4,5,6,7,8,9,10,11,13,14,17,18,19,20,22,23,24,25,26,27,28,29,30,31,32,33,34,35,36,37,38},
	{2,3,4,5,6,7,9,10,11,12,13,14,15,16,17,18,19,21,22,23,24,25,26,28,30,31,33,34,35,36,37,38,39,40,41},
	{2,3,4,5,6,7,8,9,10,11,12,13,14,15,16,17,18,19,20,21,22,23,24,25,26,27,28,29,30,31,32,33,34,35,36,37,38,39,40,41},
	{2,3,4,5,6,7,10,13,14,17,18,19,22,23,24,25,26,28,31,33,34,36,37},
	{9,11,12,14,15,16,18,21,26,30,33,35,36,38,39,40,41}];
